# Tantalum FCC Structure Generation

# Initialize LAMMPS and specify the units and dimension
units metal
dimension 3
boundary p p p

# Define the atom style (assuming you have already defined atom types for Tantalum)
atom_style full

# Set the lattice and lattice spacing (adjust the lattice constant as needed)
lattice bcc 3.3058

# Create the simulation box with unit cells. Settings define how many atoms are placed
region box block 0 10 0 10 5 13
create_box 1 box

# Create the tantalum atoms based on the lattice
create_atoms 1 box

# Define the mass of the tantalum atoms
mass 1	180.948  # Mass of Tantalum in atomic mass units (adjust as needed)

# Define the potentials for tantalum interactions (use appropriate parameters)
pair_style pinn
pair_coeff * * Ta_2020.pinn Ta

# Set the timestep and other simulation settings
timestep 0.001
thermo 1000
thermo_style custom step temp pe ke etotal press vol

# Define the integration method
fix 1 all nve

# Continue with the rest of your simulation setup
# (e.g., defining temperature, pressure, fix commands, run commands, etc.)

# Save the configuration to a LAMMPS data file
write_data tantalum_layer10108.data
