units metal
dimension 3
boundary p p f
neighbor 1.0 bin
neigh_modify delay 1

atom_style full

# Read in Ta plane and O2 molecule info
read_data tantalum_layer10108.data
molecule o2mol o2.txt


# Define groups
group Ta type 1
group O type 2


# Create a new region above the tantalum layer as a vacuum region
region vacuum block 0.3 33 0.3 33 30 95 units box
lattice sc 6.6
# Create O2 molecules in the vacuum region (adjust number as needed)
create_atoms 0 region vacuum mol o2mol 1


# Set the Lennard-Jones potential for oxygen-tantalum interactions (use appropriate parameters)
pair_style hybrid/overlay morse 6.8 buck/coul/cut 6.8 10 pinn
pair_coeff * * pinn Ta_2020.pinn Ta NULL

# pair_style hybrid/overlay morse 6.8 buck/coul/cut 6.8 10
pair_coeff 1 2 morse 0.3789 1.6254 2.5445 6.8
pair_coeff 1 2 buck/coul/cut 100067.01 0.1319 6.05 6.8 10
pair_coeff 2 2 buck/coul/cut 1388.77 0.3623 175.00 6.8 10

# Timestep: 100. Change 100 in all steps after to change save option

compute_modify thermo_temp dynamic yes
compute ctO O temp
compute_modify ctO dynamic yes
fix mynvt1 O nvt temp 300 300 0.1
fix_modify mynvt1 temp ctO
compute ctTa Ta temp
fix mynvt2 Ta nvt temp 300 300 0.1
fix_modify mynvt2 temp ctTa


timestep 0.001
thermo 1
run 1
write_data TaOxidation_init10108.data


