# Initialization
units metal
boundary p p p
atom_style full
pair_style vashishta
neighbor 1.0 bin
neigh_modify delay 1

# System definition
read_data SiO.data
replicate 4 4 4