# Simulation setup
variable T equal 300

units metal
dimension 3
boundary p p f

atom_style full
bond_style harmonic

# Read in Ta plane and O2 molecule info
read_data tantalum_mini556.data
molecule o2mol o2.txt

# Create a new region above the tantalum layer as a vacuum region
region vacuum block 0.0 16.529 0.0 16.529 20 40 units box
lattice sc 3.0

# Create O2 molecules in the vacuum region (adjust number as needed)
create_atoms 0 region vacuum mol o2mol 2


# Define groups (not sure how necessary this is)
group Ta type 1
group O2 type 2


# Set the Lennard-Jones potential for oxygen-tantalum interactions (use appropriate parameters)
pair_style hybrid/overlay morse 6.8 buck/coul/cut 6.8 10 pinn
pair_coeff 1 2 morse 0.3789 1.6254 2.5445 6.8
pair_coeff 1 2 buck/coul/cut 100067.01 0.1319 6.05 6.8 10
pair_coeff 2 2 buck/coul/cut 1388.77 0.3623 175.00 6.8 10
# Set the EAM potential for tantalum-tantalum interactions (use the appropriate potential file)
pair_coeff * * pinn ./potentials/Ta_2020.pinn Ta NULL
bond_coeff 1 530 1.211

# Timestep: 100. Change 100 in all steps after to change save option

delete_atoms overlap 1 Ta O2 mol yes
dump dmp all atom 1 dump.init.laampstrj

# Adjust oxygen positions

# Visualization
thermo 100
variable kinetic_energy equal ke
variable potential_energy equal pe
variable pressure equal press
fix myat1 all ave/time 100 1 100 v_kinetic_energy v_potential_energy file energy.dat

# Set the timestep and other simulation settings
compute_modify thermo_temp dynamic yes
compute ctO2 O2 temp
compute_modify ctO2 dynamic yes
fix mynvt1 O2 nvt temp 300 300 0.1
fix_modify mynvt1 temp ctO2
compute ctTa Ta temp
fix mynvt2 Ta nvt temp 300 300 0.1
fix_modify mynvt2 temp ctTa
timestep 0.001
run 100

write_data TaOxidation.data
write_dump all atom dump.lammpstrj

