# LAMMPS input script for creating a 10-layer BCC niobium system in (111) orientation

units metal
dimension 3
boundary p p p

atom_style atomic
neighbor 2.0 bin
neigh_modify every 1 delay 0 check yes

# Define the lattice and create atoms
lattice bcc 3.3 origin 0.0 0.0 0.0 orient x 1 1 -2 orient y -1 1 0 orient z 1 1 1
region box block 0 10 0 10 0 10 units lattice
create_box 1 box
create_atoms 1 box

# Set atom type and mass
mass 1 92.90638

# visualization
dump mydmp all atom 1 dump.lammpstrj
thermo 10