units metal
dimension 3
boundary p p f
neighbor 1.0 bin
neigh_modify delay 1

atom_style full

# Read in Ta plane and O2 molecule info
read_data tantalum_layer775.data
molecule o2mol o2.txt

# Define groups
group Ta type 1
group O2 type 2


# Create a new region above the tantalum layer as a vacuum region
region vacuum block 0.0 16.529 0.0 16.529 20 50 units box
lattice sc 5.5
# Create O2 molecules in the vacuum region (adjust number as needed)
create_atoms 0 region vacuum mol o2mol 1



# Set the Lennard-Jones potential for oxygen-tantalum interactions (use appropriate parameters)
pair_style hybrid/overlay morse 1.4387 buck/coul/cut 1.4387 1.4387 lj/cut 1.4387 pinn
pair_coeff * * pinn Ta_2020.pinn Ta NULL
pair_coeff 1 2 morse 0.3789 1.6254 2.5445 6.8
pair_coeff 1 2 buck/coul/cut 100067.01 0.1319 6.05 1.4387 
pair_coeff 2 2 lj/cut 0.009737587 3.433 1.4387
#bond_coeff 1 70.7167 1.54 5.12633 1.2075
# Timestep: 100. Change 100 in all steps after to change save option

compute_modify thermo_temp dynamic yes
compute ctO2 O2 temp
compute_modify ctO2 dynamic yes
fix mynvt1 O2 nvt temp 300 300 100
fix_modify mynvt1 temp ctO2
compute ctTa Ta temp
fix mynvt2 Ta nvt temp 300 300 100
fix_modify mynvt2 temp ctTa


timestep 0.001
thermo 1
run 1
write_data TaOxidation_init775.data


