units metal
boundary p p p
atom_style charge
box tilt large

#-------------------------------------------------------------
# 28 atoms
# 2 atom types
#
#  Ta    O 
#   8   20 
#
lattice 		 custom     1.000000 spacing    12.930436     4.925874     5.440603 &
                                     a1    12.930436     0.000000     0.000000 &
       			                     a2     0.000000     4.925874     0.000000 &
       			                     a3    -1.276601    -0.000000     5.440603 &
 			 basis     0.358820     0.746350     0.730258 &
 			 basis     0.141180     0.246350     0.769742 &
 			 basis     0.358820     0.253650     0.230258 &
 			 basis     0.641180     0.746350     0.769742 &
 			 basis     0.141180     0.753650     0.269742 &
 			 basis     0.858820     0.753650     0.230258 &
 			 basis     0.641180     0.253650     0.269742 &
 			 basis     0.858820     0.246350     0.730258 &
 			 basis     0.388241     0.050715     0.516601 &
 			 basis     0.204800     0.930903     0.627376 &
 			 basis     0.204800     0.069097     0.127376 &
 			 basis     0.795200     0.069097     0.372624 &
 			 basis     0.888241     0.449285     0.016601 &
 			 basis     0.000000     0.108534     0.750000 &
 			 basis     0.611759     0.050715     0.983399 &
 			 basis     0.888241     0.550715     0.516601 &
 			 basis     0.704800     0.430903     0.627376 &
 			 basis     0.500000     0.608534     0.750000 &
 			 basis     0.795200     0.930903     0.872624 &
 			 basis     0.000000     0.891466     0.250000 &
 			 basis     0.295200     0.569097     0.372624 &
 			 basis     0.388241     0.949285     0.016601 &
 			 basis     0.704800     0.569097     0.127376 &
 			 basis     0.500000     0.391466     0.250000 &
 			 basis     0.611759     0.949285     0.483399 &
 			 basis     0.111759     0.449285     0.483399 &
 			 basis     0.295200     0.430903     0.872624 &
 			 basis     0.111759     0.550715     0.983399 

region box prism 0 1 0 1 0 1     0.000000    -0.098728    -0.000000 units lattice
create_box 		 2 box
create_atoms 		 2 box &
 			 basis 1 1 &
 			 basis 2 1 &
 			 basis 3 1 &
 			 basis 4 1 &
 			 basis 5 1 &
 			 basis 6 1 &
 			 basis 7 1 &
 			 basis 8 1 &
 			 basis 9 2 &
 			 basis 10 2 &
 			 basis 11 2 &
 			 basis 12 2 &
 			 basis 13 2 &
 			 basis 14 2 &
 			 basis 15 2 &
 			 basis 16 2 &
 			 basis 17 2 &
 			 basis 18 2 &
 			 basis 19 2 &
 			 basis 20 2 &
 			 basis 21 2 &
 			 basis 22 2 &
 			 basis 23 2 &
 			 basis 24 2 &
 			 basis 25 2 &
 			 basis 26 2 &
 			 basis 27 2 &
 			 basis 28 2
mass 1  180.9479
mass 2   15.9994
#-------------------------------------------------------------

group Ta type 1
group O type 2

set group Ta charge 5.0
set group O charge -2.0

pair_style hybrid/overlay coul/ctip 12.0 20.0 ewald eam/alloy
kspace_style ewald 1e-6

pair_coeff * * coul/ctip TaO.ctip Ta O
pair_coeff * * eam/alloy TaO.set Ta O

neighbor 2.0 bin
neigh_modify delay 10 check yes

fix dyncharge all qeq/ctip 10 12.0 1.0e-3 1000 coul/ctip

velocity all create 300.0 2023915
timestep 0.0005
fix integrate all nve
run 10000
